(set-info :smt-lib-version 2.6)
(set-logic QF_S)
(set-info :source |
Generated by: Murphy Berzish, Mitja Kulczynski, Federico Mora, Florin Manea, Joel Day, Dirk Nowotka, Vijay Ganesh, Zhengyang Lu
Generated on: 2020-10-01
Description: Translated from a collection of real-world regex queries, AutomataArk, collected by Loris D’Antoni and Fang Wang: https://github.com/lorisdanto/automatark
Application: Evaluate solvers on real-world regex queries
Target solver: Z3str3RE, CVC4, OSTRICH, Z3seq, Z3str3, Z3-Trau
Publications: Berzish, M., Kulczynski, M., Mora, F., Manea, F., Day, J. D., Nowotka, D., & Ganesh, V. (2021, July). An SMT solver for regular expressions and linear arithmetic over string length. In CAV 2021.
|)
(set-info :license "https://creativecommons.org/licenses/by/4.0/")
(set-info :category "industrial")
(set-info :status unknown)

(declare-const X String)
(assert (str.in_re X (re.union (re.++ (re.union (str.to_re "p") (str.to_re "|") (str.to_re "P")) (re.* (re.union (str.to_re " ") (str.to_re "\u{9}") (str.to_re "\u{a}") (str.to_re "\u{c}") (str.to_re "\u{d}"))) (re.union (str.to_re "o") (str.to_re "|") (str.to_re "O")) (re.* (re.union (str.to_re " ") (str.to_re "\u{9}") (str.to_re "\u{a}") (str.to_re "\u{c}") (str.to_re "\u{d}"))) (re.union (str.to_re "b") (str.to_re "|") (str.to_re "B")) (re.* (re.union (str.to_re " ") (str.to_re "\u{9}") (str.to_re "\u{a}") (str.to_re "\u{c}") (str.to_re "\u{d}"))) (re.union (str.to_re "o") (str.to_re "|") (str.to_re "O")) (re.* (re.union (str.to_re " ") (str.to_re "\u{9}") (str.to_re "\u{a}") (str.to_re "\u{c}") (str.to_re "\u{d}"))) (re.union (str.to_re "x") (str.to_re "|") (str.to_re "X")) (re.* (re.union (str.to_re " ") (str.to_re "\u{9}") (str.to_re "\u{a}") (str.to_re "\u{c}") (str.to_re "\u{d}"))) (re.* (re.union (re.range "a" "z") (re.range "A" "Z") (re.range "0" "9")))) (re.++ (re.+ (re.union (str.to_re "P") (str.to_re "|") (str.to_re "p"))) (re.opt (re.union (str.to_re "OST") (str.to_re "ost") (str.to_re "o") (str.to_re "O"))) (re.opt (str.to_re ".")) (re.* (re.union (str.to_re " ") (str.to_re "\u{9}") (str.to_re "\u{a}") (str.to_re "\u{c}") (str.to_re "\u{d}"))) (re.+ (re.union (str.to_re "O") (str.to_re "|") (str.to_re "o") (str.to_re "0"))) (re.opt (re.union (str.to_re "ffice") (str.to_re "FFICE"))) (re.opt (str.to_re ".")) (re.* (re.union (str.to_re " ") (str.to_re "\u{9}") (str.to_re "\u{a}") (str.to_re "\u{c}") (str.to_re "\u{d}"))) (re.union (str.to_re "B") (str.to_re "|") (str.to_re "b")) (re.opt (re.union (str.to_re "O") (str.to_re "|") (str.to_re "o") (str.to_re "0"))) (re.+ (re.union (str.to_re "X") (str.to_re "|") (str.to_re "x"))) (re.opt (str.to_re ".")) (re.+ (re.union (str.to_re " ") (str.to_re "\u{9}") (str.to_re "\u{a}") (str.to_re "\u{c}") (str.to_re "\u{d}"))) (re.opt (str.to_re "#")) (re.* (re.+ (re.range "0" "9"))) (re.* (re.+ (re.comp (re.range "0" "9")))) (str.to_re "\u{a}")))))
(assert (not (str.in_re X (re.++ (re.union (re.++ (re.union (str.to_re "2") (str.to_re "8") (str.to_re "9")) ((_ re.loop 2 2) (re.range "0" "9"))) (re.++ ((_ re.loop 2 2) (re.range "0" "9")) (str.to_re "0") (re.union (str.to_re "2") (str.to_re "8") (str.to_re "9"))) (re.++ (re.range "1" "9") ((_ re.loop 3 3) (re.range "0" "9")))) (str.to_re "\u{a}")))))
(assert (str.in_re X (re.union (re.++ (str.to_re "/") (re.* (re.union (str.to_re " ") (str.to_re "\u{9}") (str.to_re "\u{a}") (str.to_re "\u{c}") (str.to_re "\u{d}"))) (re.opt (re.++ (str.to_re "http") (re.* (str.to_re "s")) (str.to_re "://"))) (re.+ (re.++ ((_ re.loop 3 3) (re.union (str.to_re "w") (str.to_re "W"))) (str.to_re "."))) (re.+ (re.union (re.range "a" "z") (re.range "A" "Z") (re.range "0" "9"))) (str.to_re ".") ((_ re.loop 2 3) (re.union (re.range "a" "z") (re.range "A" "Z"))) (re.* re.allchar)) (re.++ (str.to_re "http") (re.* (str.to_re "s")) (str.to_re "://") ((_ re.loop 3 3) (re.comp (str.to_re "w"))) (re.+ (re.union (re.range "a" "z") (re.range "A" "Z") (re.range "0" "9"))) (str.to_re ".") ((_ re.loop 2 3) (re.union (re.range "a" "z") (re.range "A" "Z"))) (re.* re.allchar)) (re.++ (str.to_re "http") (re.* (str.to_re "s")) (str.to_re "://") ((_ re.loop 2 3) (re.range "0" "9")) (str.to_re ".") ((_ re.loop 2 3) (re.range "0" "9")) (str.to_re ".") ((_ re.loop 2 3) (re.range "0" "9")) (str.to_re ".") ((_ re.loop 2 3) (re.range "0" "9")) (re.* re.allchar) (str.to_re "/;\u{a}")))))
(check-sat)

(exit)
